20 10
85 44 57 61 48 14 68 8 13 19
71 69 58 69 51 14 74 11 15 26
85 63 43 64 62 9 84 5 31 28
92 27 63 86 40 17 76 6 27 16
87 39 58 67 41 21 85 3 28 47
76 41 42 78 73 15 72 6 21 14
94 27 48 38 47 9 83 11 21 26
70 63 60 73 38 23 74 8 34 48
81 37 66 62 54 10 83 13 20 16
76 53 51 63 58 30 74 5 26 33
80 46 26 63 52 22 77 5 31 39
90 47 42 51 56 25 73 13 49 36
86 36 70 38 54 15 84 5 37 24
81 53 40 63 61 12 73 4 28 40
82 41 49 62 49 13 62 8 13 53
88 68 49 73 56 14 78 3 28 21
80 62 82 68 43 16 80 8 29 30
95 50 72 53 83 10 72 8 20 38
92 59 35 83 55 24 85 9 15 32
79 57 49 58 66 13 92 8 22 38
